second-half-model.lp
Minimize
s4_16

Subject To
x5_0 + x5_1 + x5_2 + x5_3 + x5_4 + x5_5 + x5_6 + x5_7 + x5_8 + x5_9 + x5_10 + x5_11 + x5_12 + x5_13 + x5_14 + x5_15 + x5_16 + x5_17 + x5_18 + x5_19 + x5_20 + x5_21 + x5_22 + x5_23 + x5_24 + x5_25 + x5_26 + x5_27 + x5_28 + x5_29 + x5_30 + x5_31 = 1
x5_13 = 1

s3_0 = 0
s3_0 - x3_9 - f3_0 + f3_16 + s3_1 >= 0
s3_0 + x3_9 + f3_0 - f3_16 - s3_1 >= 0
s3_0 + x3_9 - f3_0 - f3_16 + s3_1 >= 0
s3_0 - x3_9 + f3_0 - f3_16 + s3_1 >= 0
s3_0 + x3_9 - f3_0 + f3_16 - s3_1 >= 0
s3_0 - x3_9 + f3_0 + f3_16 - s3_1 >= 0
x3_9 - s3_0 + f3_0 + f3_16 + s3_1 >= 0
s3_0 + x3_9 + f3_0 + f3_16 + s3_1 <= 4
s3_1 - x3_10 - f3_1 + f3_17 + s3_2 >= 0
s3_1 + x3_10 + f3_1 - f3_17 - s3_2 >= 0
s3_1 + x3_10 - f3_1 - f3_17 + s3_2 >= 0
s3_1 - x3_10 + f3_1 - f3_17 + s3_2 >= 0
s3_1 + x3_10 - f3_1 + f3_17 - s3_2 >= 0
s3_1 - x3_10 + f3_1 + f3_17 - s3_2 >= 0
x3_10 - s3_1 + f3_1 + f3_17 + s3_2 >= 0
s3_1 + x3_10 + f3_1 + f3_17 + s3_2 <= 4
s3_2 - x3_11 - f3_2 + f3_18 + s3_3 >= 0
s3_2 + x3_11 + f3_2 - f3_18 - s3_3 >= 0
s3_2 + x3_11 - f3_2 - f3_18 + s3_3 >= 0
s3_2 - x3_11 + f3_2 - f3_18 + s3_3 >= 0
s3_2 + x3_11 - f3_2 + f3_18 - s3_3 >= 0
s3_2 - x3_11 + f3_2 + f3_18 - s3_3 >= 0
x3_11 - s3_2 + f3_2 + f3_18 + s3_3 >= 0
s3_2 + x3_11 + f3_2 + f3_18 + s3_3 <= 4
s3_3 - x3_12 - f3_3 + f3_19 + s3_4 >= 0
s3_3 + x3_12 + f3_3 - f3_19 - s3_4 >= 0
s3_3 + x3_12 - f3_3 - f3_19 + s3_4 >= 0
s3_3 - x3_12 + f3_3 - f3_19 + s3_4 >= 0
s3_3 + x3_12 - f3_3 + f3_19 - s3_4 >= 0
s3_3 - x3_12 + f3_3 + f3_19 - s3_4 >= 0
x3_12 - s3_3 + f3_3 + f3_19 + s3_4 >= 0
s3_3 + x3_12 + f3_3 + f3_19 + s3_4 <= 4
s3_4 - x3_13 - f3_4 + f3_20 + s3_5 >= 0
s3_4 + x3_13 + f3_4 - f3_20 - s3_5 >= 0
s3_4 + x3_13 - f3_4 - f3_20 + s3_5 >= 0
s3_4 - x3_13 + f3_4 - f3_20 + s3_5 >= 0
s3_4 + x3_13 - f3_4 + f3_20 - s3_5 >= 0
s3_4 - x3_13 + f3_4 + f3_20 - s3_5 >= 0
x3_13 - s3_4 + f3_4 + f3_20 + s3_5 >= 0
s3_4 + x3_13 + f3_4 + f3_20 + s3_5 <= 4
s3_5 - x3_14 - f3_5 + f3_21 + s3_6 >= 0
s3_5 + x3_14 + f3_5 - f3_21 - s3_6 >= 0
s3_5 + x3_14 - f3_5 - f3_21 + s3_6 >= 0
s3_5 - x3_14 + f3_5 - f3_21 + s3_6 >= 0
s3_5 + x3_14 - f3_5 + f3_21 - s3_6 >= 0
s3_5 - x3_14 + f3_5 + f3_21 - s3_6 >= 0
x3_14 - s3_5 + f3_5 + f3_21 + s3_6 >= 0
s3_5 + x3_14 + f3_5 + f3_21 + s3_6 <= 4
s3_6 - x3_15 - f3_6 + f3_22 + s3_7 >= 0
s3_6 + x3_15 + f3_6 - f3_22 - s3_7 >= 0
s3_6 + x3_15 - f3_6 - f3_22 + s3_7 >= 0
s3_6 - x3_15 + f3_6 - f3_22 + s3_7 >= 0
s3_6 + x3_15 - f3_6 + f3_22 - s3_7 >= 0
s3_6 - x3_15 + f3_6 + f3_22 - s3_7 >= 0
x3_15 - s3_6 + f3_6 + f3_22 + s3_7 >= 0
s3_6 + x3_15 + f3_6 + f3_22 + s3_7 <= 4
s3_7 - x3_0 - f3_7 + f3_23 + s3_8 >= 0
s3_7 + x3_0 + f3_7 - f3_23 - s3_8 >= 0
s3_7 + x3_0 - f3_7 - f3_23 + s3_8 >= 0
s3_7 - x3_0 + f3_7 - f3_23 + s3_8 >= 0
s3_7 + x3_0 - f3_7 + f3_23 - s3_8 >= 0
s3_7 - x3_0 + f3_7 + f3_23 - s3_8 >= 0
x3_0 - s3_7 + f3_7 + f3_23 + s3_8 >= 0
s3_7 + x3_0 + f3_7 + f3_23 + s3_8 <= 4
s3_8 - x3_1 - f3_8 + f3_24 + s3_9 >= 0
s3_8 + x3_1 + f3_8 - f3_24 - s3_9 >= 0
s3_8 + x3_1 - f3_8 - f3_24 + s3_9 >= 0
s3_8 - x3_1 + f3_8 - f3_24 + s3_9 >= 0
s3_8 + x3_1 - f3_8 + f3_24 - s3_9 >= 0
s3_8 - x3_1 + f3_8 + f3_24 - s3_9 >= 0
x3_1 - s3_8 + f3_8 + f3_24 + s3_9 >= 0
s3_8 + x3_1 + f3_8 + f3_24 + s3_9 <= 4
s3_9 - x3_2 - f3_9 + f3_25 + s3_10 >= 0
s3_9 + x3_2 + f3_9 - f3_25 - s3_10 >= 0
s3_9 + x3_2 - f3_9 - f3_25 + s3_10 >= 0
s3_9 - x3_2 + f3_9 - f3_25 + s3_10 >= 0
s3_9 + x3_2 - f3_9 + f3_25 - s3_10 >= 0
s3_9 - x3_2 + f3_9 + f3_25 - s3_10 >= 0
x3_2 - s3_9 + f3_9 + f3_25 + s3_10 >= 0
s3_9 + x3_2 + f3_9 + f3_25 + s3_10 <= 4
s3_10 - x3_3 - f3_10 + f3_26 + s3_11 >= 0
s3_10 + x3_3 + f3_10 - f3_26 - s3_11 >= 0
s3_10 + x3_3 - f3_10 - f3_26 + s3_11 >= 0
s3_10 - x3_3 + f3_10 - f3_26 + s3_11 >= 0
s3_10 + x3_3 - f3_10 + f3_26 - s3_11 >= 0
s3_10 - x3_3 + f3_10 + f3_26 - s3_11 >= 0
x3_3 - s3_10 + f3_10 + f3_26 + s3_11 >= 0
s3_10 + x3_3 + f3_10 + f3_26 + s3_11 <= 4
s3_11 - x3_4 - f3_11 + f3_27 + s3_12 >= 0
s3_11 + x3_4 + f3_11 - f3_27 - s3_12 >= 0
s3_11 + x3_4 - f3_11 - f3_27 + s3_12 >= 0
s3_11 - x3_4 + f3_11 - f3_27 + s3_12 >= 0
s3_11 + x3_4 - f3_11 + f3_27 - s3_12 >= 0
s3_11 - x3_4 + f3_11 + f3_27 - s3_12 >= 0
x3_4 - s3_11 + f3_11 + f3_27 + s3_12 >= 0
s3_11 + x3_4 + f3_11 + f3_27 + s3_12 <= 4
s3_12 - x3_5 - f3_12 + f3_28 + s3_13 >= 0
s3_12 + x3_5 + f3_12 - f3_28 - s3_13 >= 0
s3_12 + x3_5 - f3_12 - f3_28 + s3_13 >= 0
s3_12 - x3_5 + f3_12 - f3_28 + s3_13 >= 0
s3_12 + x3_5 - f3_12 + f3_28 - s3_13 >= 0
s3_12 - x3_5 + f3_12 + f3_28 - s3_13 >= 0
x3_5 - s3_12 + f3_12 + f3_28 + s3_13 >= 0
s3_12 + x3_5 + f3_12 + f3_28 + s3_13 <= 4
s3_13 - x3_6 - f3_13 + f3_29 + s3_14 >= 0
s3_13 + x3_6 + f3_13 - f3_29 - s3_14 >= 0
s3_13 + x3_6 - f3_13 - f3_29 + s3_14 >= 0
s3_13 - x3_6 + f3_13 - f3_29 + s3_14 >= 0
s3_13 + x3_6 - f3_13 + f3_29 - s3_14 >= 0
s3_13 - x3_6 + f3_13 + f3_29 - s3_14 >= 0
x3_6 - s3_13 + f3_13 + f3_29 + s3_14 >= 0
s3_13 + x3_6 + f3_13 + f3_29 + s3_14 <= 4
s3_14 - x3_7 - f3_14 + f3_30 + s3_15 >= 0
s3_14 + x3_7 + f3_14 - f3_30 - s3_15 >= 0
s3_14 + x3_7 - f3_14 - f3_30 + s3_15 >= 0
s3_14 - x3_7 + f3_14 - f3_30 + s3_15 >= 0
s3_14 + x3_7 - f3_14 + f3_30 - s3_15 >= 0
s3_14 - x3_7 + f3_14 + f3_30 - s3_15 >= 0
x3_7 - s3_14 + f3_14 + f3_30 + s3_15 >= 0
s3_14 + x3_7 + f3_14 + f3_30 + s3_15 <= 4
s3_15 - x3_8 - f3_15 + f3_31 + s3_16 >= 0
s3_15 + x3_8 + f3_15 - f3_31 - s3_16 >= 0
s3_15 + x3_8 - f3_15 - f3_31 + s3_16 >= 0
s3_15 - x3_8 + f3_15 - f3_31 + s3_16 >= 0
s3_15 + x3_8 - f3_15 + f3_31 - s3_16 >= 0
s3_15 - x3_8 + f3_15 + f3_31 - s3_16 >= 0
x3_8 - s3_15 + f3_15 + f3_31 + s3_16 >= 0
s3_15 + x3_8 + f3_15 + f3_31 + s3_16 <= 4
d3_0 - x3_16 >= 0
d3_0 - f3_0 >= 0
d3_0 - x4_30 >= 0
x3_16 + f3_0 + x4_30 <= 2
x3_16 + f3_0 + x4_30 - 2 d3_0 >= 0
d3_1 - x3_17 >= 0
d3_1 - f3_1 >= 0
d3_1 - x4_31 >= 0
x3_17 + f3_1 + x4_31 <= 2
x3_17 + f3_1 + x4_31 - 2 d3_1 >= 0
d3_2 - x3_18 >= 0
d3_2 - f3_2 >= 0
d3_2 - x4_16 >= 0
x3_18 + f3_2 + x4_16 <= 2
x3_18 + f3_2 + x4_16 - 2 d3_2 >= 0
d3_3 - x3_19 >= 0
d3_3 - f3_3 >= 0
d3_3 - x4_17 >= 0
x3_19 + f3_3 + x4_17 <= 2
x3_19 + f3_3 + x4_17 - 2 d3_3 >= 0
d3_4 - x3_20 >= 0
d3_4 - f3_4 >= 0
d3_4 - x4_18 >= 0
x3_20 + f3_4 + x4_18 <= 2
x3_20 + f3_4 + x4_18 - 2 d3_4 >= 0
d3_5 - x3_21 >= 0
d3_5 - f3_5 >= 0
d3_5 - x4_19 >= 0
x3_21 + f3_5 + x4_19 <= 2
x3_21 + f3_5 + x4_19 - 2 d3_5 >= 0
d3_6 - x3_22 >= 0
d3_6 - f3_6 >= 0
d3_6 - x4_20 >= 0
x3_22 + f3_6 + x4_20 <= 2
x3_22 + f3_6 + x4_20 - 2 d3_6 >= 0
d3_7 - x3_23 >= 0
d3_7 - f3_7 >= 0
d3_7 - x4_21 >= 0
x3_23 + f3_7 + x4_21 <= 2
x3_23 + f3_7 + x4_21 - 2 d3_7 >= 0
d3_8 - x3_24 >= 0
d3_8 - f3_8 >= 0
d3_8 - x4_22 >= 0
x3_24 + f3_8 + x4_22 <= 2
x3_24 + f3_8 + x4_22 - 2 d3_8 >= 0
d3_9 - x3_25 >= 0
d3_9 - f3_9 >= 0
d3_9 - x4_23 >= 0
x3_25 + f3_9 + x4_23 <= 2
x3_25 + f3_9 + x4_23 - 2 d3_9 >= 0
d3_10 - x3_26 >= 0
d3_10 - f3_10 >= 0
d3_10 - x4_24 >= 0
x3_26 + f3_10 + x4_24 <= 2
x3_26 + f3_10 + x4_24 - 2 d3_10 >= 0
d3_11 - x3_27 >= 0
d3_11 - f3_11 >= 0
d3_11 - x4_25 >= 0
x3_27 + f3_11 + x4_25 <= 2
x3_27 + f3_11 + x4_25 - 2 d3_11 >= 0
d3_12 - x3_28 >= 0
d3_12 - f3_12 >= 0
d3_12 - x4_26 >= 0
x3_28 + f3_12 + x4_26 <= 2
x3_28 + f3_12 + x4_26 - 2 d3_12 >= 0
d3_13 - x3_29 >= 0
d3_13 - f3_13 >= 0
d3_13 - x4_27 >= 0
x3_29 + f3_13 + x4_27 <= 2
x3_29 + f3_13 + x4_27 - 2 d3_13 >= 0
d3_14 - x3_30 >= 0
d3_14 - f3_14 >= 0
d3_14 - x4_28 >= 0
x3_30 + f3_14 + x4_28 <= 2
x3_30 + f3_14 + x4_28 - 2 d3_14 >= 0
d3_15 - x3_31 >= 0
d3_15 - f3_15 >= 0
d3_15 - x4_29 >= 0
x3_31 + f3_15 + x4_29 <= 2
x3_31 + f3_15 + x4_29 - 2 d3_15 >= 0
d3_16 - f3_16 >= 0
d3_16 - x4_16 >= 0
d3_16 - x4_0 >= 0
f3_16 + x4_16 + x4_0 <= 2
f3_16 + x4_16 + x4_0 - 2 d3_16 >= 0
d3_17 - f3_17 >= 0
d3_17 - x4_17 >= 0
d3_17 - x4_1 >= 0
f3_17 + x4_17 + x4_1 <= 2
f3_17 + x4_17 + x4_1 - 2 d3_17 >= 0
d3_18 - f3_18 >= 0
d3_18 - x4_18 >= 0
d3_18 - x4_2 >= 0
f3_18 + x4_18 + x4_2 <= 2
f3_18 + x4_18 + x4_2 - 2 d3_18 >= 0
d3_19 - f3_19 >= 0
d3_19 - x4_19 >= 0
d3_19 - x4_3 >= 0
f3_19 + x4_19 + x4_3 <= 2
f3_19 + x4_19 + x4_3 - 2 d3_19 >= 0
d3_20 - f3_20 >= 0
d3_20 - x4_20 >= 0
d3_20 - x4_4 >= 0
f3_20 + x4_20 + x4_4 <= 2
f3_20 + x4_20 + x4_4 - 2 d3_20 >= 0
d3_21 - f3_21 >= 0
d3_21 - x4_21 >= 0
d3_21 - x4_5 >= 0
f3_21 + x4_21 + x4_5 <= 2
f3_21 + x4_21 + x4_5 - 2 d3_21 >= 0
d3_22 - f3_22 >= 0
d3_22 - x4_22 >= 0
d3_22 - x4_6 >= 0
f3_22 + x4_22 + x4_6 <= 2
f3_22 + x4_22 + x4_6 - 2 d3_22 >= 0
d3_23 - f3_23 >= 0
d3_23 - x4_23 >= 0
d3_23 - x4_7 >= 0
f3_23 + x4_23 + x4_7 <= 2
f3_23 + x4_23 + x4_7 - 2 d3_23 >= 0
d3_24 - f3_24 >= 0
d3_24 - x4_24 >= 0
d3_24 - x4_8 >= 0
f3_24 + x4_24 + x4_8 <= 2
f3_24 + x4_24 + x4_8 - 2 d3_24 >= 0
d3_25 - f3_25 >= 0
d3_25 - x4_25 >= 0
d3_25 - x4_9 >= 0
f3_25 + x4_25 + x4_9 <= 2
f3_25 + x4_25 + x4_9 - 2 d3_25 >= 0
d3_26 - f3_26 >= 0
d3_26 - x4_26 >= 0
d3_26 - x4_10 >= 0
f3_26 + x4_26 + x4_10 <= 2
f3_26 + x4_26 + x4_10 - 2 d3_26 >= 0
d3_27 - f3_27 >= 0
d3_27 - x4_27 >= 0
d3_27 - x4_11 >= 0
f3_27 + x4_27 + x4_11 <= 2
f3_27 + x4_27 + x4_11 - 2 d3_27 >= 0
d3_28 - f3_28 >= 0
d3_28 - x4_28 >= 0
d3_28 - x4_12 >= 0
f3_28 + x4_28 + x4_12 <= 2
f3_28 + x4_28 + x4_12 - 2 d3_28 >= 0
d3_29 - f3_29 >= 0
d3_29 - x4_29 >= 0
d3_29 - x4_13 >= 0
f3_29 + x4_29 + x4_13 <= 2
f3_29 + x4_29 + x4_13 - 2 d3_29 >= 0
d3_30 - f3_30 >= 0
d3_30 - x4_30 >= 0
d3_30 - x4_14 >= 0
f3_30 + x4_30 + x4_14 <= 2
f3_30 + x4_30 + x4_14 - 2 d3_30 >= 0
d3_31 - f3_31 >= 0
d3_31 - x4_31 >= 0
d3_31 - x4_15 >= 0
f3_31 + x4_31 + x4_15 <= 2
f3_31 + x4_31 + x4_15 - 2 d3_31 >= 0


Binary

x5_0
x5_1
x5_2
x5_3
x5_4
x5_5
x5_6
x5_7
x5_8
x5_9
x5_10
x5_11
x5_12
x5_13
x5_14
x5_15
x5_16
x5_17
x5_18
x5_19
x5_20
x5_21
x5_22
x5_23
x5_24
x5_25
x5_26
x5_27
x5_28
x5_29
x5_30
x5_31
x4_0
x4_1
x4_2
x4_3
x4_4
x4_5
x4_6
x4_7
x4_8
x4_9
x4_10
x4_11
x4_12
x4_13
x4_14
x4_15
x4_16
x4_17
x4_18
x4_19
x4_20
x4_21
x4_22
x4_23
x4_24
x4_25
x4_26
x4_27
x4_28
x4_29
x4_30
x4_31
f3_0
f3_1
f3_2
f3_3
f3_4
f3_5
f3_6
f3_7
f3_8
f3_9
f3_10
f3_11
f3_12
f3_13
f3_14
f3_15
f3_16
f3_17
f3_18
f3_19
f3_20
f3_21
f3_22
f3_23
f3_24
f3_25
f3_26
f3_27
f3_28
f3_29
f3_30
f3_31
s3_0
s3_1
s3_2
s3_3
s3_4
s3_5
s3_6
s3_7
s3_8
s3_9
s3_10
s3_11
s3_12
s3_13
s3_14
s3_15
s3_16
d3_0
d3_1
d3_2
d3_3
d3_4
d3_5
d3_6
d3_7
d3_8
d3_9
d3_10
d3_11
d3_12
d3_13
d3_14
d3_15
d3_16
d3_17
d3_18
d3_19
d3_20
d3_21
d3_22
d3_23
d3_24
d3_25
d3_26
d3_27
d3_28
d3_29
d3_30
d3_31
End